CUST NO.,SPOT ID,PARKING TIME_ARRIVE,PARKING TIME_OPEN
0,0,0,0
156,156,0,0
157,157,0,0
158,158,0,0
159,159,0,0
160,160,0,0
161,161,0,0
162,162,0,0
163,163,0,0
168,168,0,0
169,169,0,0
170,170,0,0
175,175,0,0
164,164,0,0
165,165,0,0
31,31,0,0
176,176,0,0
177,177,0,0
178,178,0,0
312,312,0,0
1000000,255,0,0
1000001,255,0,0
1000002,255,0,0
1000003,255,0,0